VER
4

OBJSENSE
MIN

VAR
667 1
F 667

CON
2082 3
SVECQRE 1333
SVECPSD 666
L= 83

OBJACOORD
1
0 1.0

ACOORD
1944
0 0 1.0
1 1 1.0
2 2 1.0
3 3 1.0
4 4 1.0
5 5 1.0
6 6 1.0
7 7 1.0
8 8 1.0
9 9 1.0
10 10 1.0
11 11 1.0
12 12 1.0
13 13 1.0
14 14 1.0
15 15 1.0
16 16 1.0
17 17 1.0
18 18 1.0
19 19 1.0
20 20 1.0
21 21 1.0
22 22 1.0
23 23 1.0
24 24 1.0
25 25 1.0
26 26 1.0
27 27 1.0
28 28 1.0
29 29 1.0
30 30 1.0
31 31 1.0
32 32 1.0
33 33 1.0
34 34 1.0
35 35 1.0
36 36 1.0
37 37 1.0
38 38 1.0
39 39 1.0
40 40 1.0
41 41 1.0
42 42 1.0
43 43 1.0
44 44 1.0
45 45 1.0
46 46 1.0
47 47 1.0
48 48 1.0
49 49 1.0
50 50 1.0
51 51 1.0
52 52 1.0
53 53 1.0
54 54 1.0
55 55 1.0
56 56 1.0
57 57 1.0
58 58 1.0
59 59 1.0
60 60 1.0
61 61 1.0
62 62 1.0
63 63 1.0
64 64 1.0
65 65 1.0
66 66 1.0
67 67 1.0
68 68 1.0
69 69 1.0
70 70 1.0
71 71 1.0
72 72 1.0
73 73 1.0
74 74 1.0
75 75 1.0
76 76 1.0
77 77 1.0
78 78 1.0
79 79 1.0
80 80 1.0
81 81 1.0
82 82 1.0
83 83 1.0
84 84 1.0
85 85 1.0
86 86 1.0
87 87 1.0
88 88 1.0
89 89 1.0
90 90 1.0
91 91 1.0
92 92 1.0
93 93 1.0
94 94 1.0
95 95 1.0
96 96 1.0
97 97 1.0
98 98 1.0
99 99 1.0
100 100 1.0
101 101 1.0
102 102 1.0
103 103 1.0
104 104 1.0
105 105 1.0
106 106 1.0
107 107 1.0
108 108 1.0
109 109 1.0
110 110 1.0
111 111 1.0
112 112 1.0
113 113 1.0
114 114 1.0
115 115 1.0
116 116 1.0
117 117 1.0
118 118 1.0
119 119 1.0
120 120 1.0
121 121 1.0
122 122 1.0
123 123 1.0
124 124 1.0
125 125 1.0
126 126 1.0
127 127 1.0
128 128 1.0
129 129 1.0
130 130 1.0
131 131 1.0
132 132 1.0
133 133 1.0
134 134 1.0
135 135 1.0
136 136 1.0
137 137 1.0
138 138 1.0
139 139 1.0
140 140 1.0
141 141 1.0
142 142 1.0
143 143 1.0
144 144 1.0
145 145 1.0
146 146 1.0
147 147 1.0
148 148 1.0
149 149 1.0
150 150 1.0
151 151 1.0
152 152 1.0
153 153 1.0
154 154 1.0
155 155 1.0
156 156 1.0
157 157 1.0
158 158 1.0
159 159 1.0
160 160 1.0
161 161 1.0
162 162 1.0
163 163 1.0
164 164 1.0
165 165 1.0
166 166 1.0
167 167 1.0
168 168 1.0
169 169 1.0
170 170 1.0
171 171 1.0
172 172 1.0
173 173 1.0
174 174 1.0
175 175 1.0
176 176 1.0
177 177 1.0
178 178 1.0
179 179 1.0
180 180 1.0
181 181 1.0
182 182 1.0
183 183 1.0
184 184 1.0
185 185 1.0
186 186 1.0
187 187 1.0
188 188 1.0
189 189 1.0
190 190 1.0
191 191 1.0
192 192 1.0
193 193 1.0
194 194 1.0
195 195 1.0
196 196 1.0
197 197 1.0
198 198 1.0
199 199 1.0
200 200 1.0
201 201 1.0
202 202 1.0
203 203 1.0
204 204 1.0
205 205 1.0
206 206 1.0
207 207 1.0
208 208 1.0
209 209 1.0
210 210 1.0
211 211 1.0
212 212 1.0
213 213 1.0
214 214 1.0
215 215 1.0
216 216 1.0
217 217 1.0
218 218 1.0
219 219 1.0
220 220 1.0
221 221 1.0
222 222 1.0
223 223 1.0
224 224 1.0
225 225 1.0
226 226 1.0
227 227 1.0
228 228 1.0
229 229 1.0
230 230 1.0
231 231 1.0
232 232 1.0
233 233 1.0
234 234 1.0
235 235 1.0
236 236 1.0
237 237 1.0
238 238 1.0
239 239 1.0
240 240 1.0
241 241 1.0
242 242 1.0
243 243 1.0
244 244 1.0
245 245 1.0
246 246 1.0
247 247 1.0
248 248 1.0
249 249 1.0
250 250 1.0
251 251 1.0
252 252 1.0
253 253 1.0
254 254 1.0
255 255 1.0
256 256 1.0
257 257 1.0
258 258 1.0
259 259 1.0
260 260 1.0
261 261 1.0
262 262 1.0
263 263 1.0
264 264 1.0
265 265 1.0
266 266 1.0
267 267 1.0
268 268 1.0
269 269 1.0
270 270 1.0
271 271 1.0
272 272 1.0
273 273 1.0
274 274 1.0
275 275 1.0
276 276 1.0
277 277 1.0
278 278 1.0
279 279 1.0
280 280 1.0
281 281 1.0
282 282 1.0
283 283 1.0
284 284 1.0
285 285 1.0
286 286 1.0
287 287 1.0
288 288 1.0
289 289 1.0
290 290 1.0
291 291 1.0
292 292 1.0
293 293 1.0
294 294 1.0
295 295 1.0
296 296 1.0
297 297 1.0
298 298 1.0
299 299 1.0
300 300 1.0
301 301 1.0
302 302 1.0
303 303 1.0
304 304 1.0
305 305 1.0
306 306 1.0
307 307 1.0
308 308 1.0
309 309 1.0
310 310 1.0
311 311 1.0
312 312 1.0
313 313 1.0
314 314 1.0
315 315 1.0
316 316 1.0
317 317 1.0
318 318 1.0
319 319 1.0
320 320 1.0
321 321 1.0
322 322 1.0
323 323 1.0
324 324 1.0
325 325 1.0
326 326 1.0
327 327 1.0
328 328 1.0
329 329 1.0
330 330 1.0
331 331 1.0
332 332 1.0
333 333 1.0
334 334 1.0
335 335 1.0
336 336 1.0
337 337 1.0
338 338 1.0
339 339 1.0
340 340 1.0
341 341 1.0
342 342 1.0
343 343 1.0
344 344 1.0
345 345 1.0
346 346 1.0
347 347 1.0
348 348 1.0
349 349 1.0
350 350 1.0
351 351 1.0
352 352 1.0
353 353 1.0
354 354 1.0
355 355 1.0
356 356 1.0
357 357 1.0
358 358 1.0
359 359 1.0
360 360 1.0
361 361 1.0
362 362 1.0
363 363 1.0
364 364 1.0
365 365 1.0
366 366 1.0
367 367 1.0
368 368 1.0
369 369 1.0
370 370 1.0
371 371 1.0
372 372 1.0
373 373 1.0
374 374 1.0
375 375 1.0
376 376 1.0
377 377 1.0
378 378 1.0
379 379 1.0
380 380 1.0
381 381 1.0
382 382 1.0
383 383 1.0
384 384 1.0
385 385 1.0
386 386 1.0
387 387 1.0
388 388 1.0
389 389 1.0
390 390 1.0
391 391 1.0
392 392 1.0
393 393 1.0
394 394 1.0
395 395 1.0
396 396 1.0
397 397 1.0
398 398 1.0
399 399 1.0
400 400 1.0
401 401 1.0
402 402 1.0
403 403 1.0
404 404 1.0
405 405 1.0
406 406 1.0
407 407 1.0
408 408 1.0
409 409 1.0
410 410 1.0
411 411 1.0
412 412 1.0
413 413 1.0
414 414 1.0
415 415 1.0
416 416 1.0
417 417 1.0
418 418 1.0
419 419 1.0
420 420 1.0
421 421 1.0
422 422 1.0
423 423 1.0
424 424 1.0
425 425 1.0
426 426 1.0
427 427 1.0
428 428 1.0
429 429 1.0
430 430 1.0
431 431 1.0
432 432 1.0
433 433 1.0
434 434 1.0
435 435 1.0
436 436 1.0
437 437 1.0
438 438 1.0
439 439 1.0
440 440 1.0
441 441 1.0
442 442 1.0
443 443 1.0
444 444 1.0
445 445 1.0
446 446 1.0
447 447 1.0
448 448 1.0
449 449 1.0
450 450 1.0
451 451 1.0
452 452 1.0
453 453 1.0
454 454 1.0
455 455 1.0
456 456 1.0
457 457 1.0
458 458 1.0
459 459 1.0
460 460 1.0
461 461 1.0
462 462 1.0
463 463 1.0
464 464 1.0
465 465 1.0
466 466 1.0
467 467 1.0
468 468 1.0
469 469 1.0
470 470 1.0
471 471 1.0
472 472 1.0
473 473 1.0
474 474 1.0
475 475 1.0
476 476 1.0
477 477 1.0
478 478 1.0
479 479 1.0
480 480 1.0
481 481 1.0
482 482 1.0
483 483 1.0
484 484 1.0
485 485 1.0
486 486 1.0
487 487 1.0
488 488 1.0
489 489 1.0
490 490 1.0
491 491 1.0
492 492 1.0
493 493 1.0
494 494 1.0
495 495 1.0
496 496 1.0
497 497 1.0
498 498 1.0
499 499 1.0
500 500 1.0
501 501 1.0
502 502 1.0
503 503 1.0
504 504 1.0
505 505 1.0
506 506 1.0
507 507 1.0
508 508 1.0
509 509 1.0
510 510 1.0
511 511 1.0
512 512 1.0
513 513 1.0
514 514 1.0
515 515 1.0
516 516 1.0
517 517 1.0
518 518 1.0
519 519 1.0
520 520 1.0
521 521 1.0
522 522 1.0
523 523 1.0
524 524 1.0
525 525 1.0
526 526 1.0
527 527 1.0
528 528 1.0
529 529 1.0
530 530 1.0
531 531 1.0
532 532 1.0
533 533 1.0
534 534 1.0
535 535 1.0
536 536 1.0
537 537 1.0
538 538 1.0
539 539 1.0
540 540 1.0
541 541 1.0
542 542 1.0
543 543 1.0
544 544 1.0
545 545 1.0
546 546 1.0
547 547 1.0
548 548 1.0
549 549 1.0
550 550 1.0
551 551 1.0
552 552 1.0
553 553 1.0
554 554 1.0
555 555 1.0
556 556 1.0
557 557 1.0
558 558 1.0
559 559 1.0
560 560 1.0
561 561 1.0
562 562 1.0
563 563 1.0
564 564 1.0
565 565 1.0
566 566 1.0
567 567 1.0
568 568 1.0
569 569 1.0
570 570 1.0
571 571 1.0
572 572 1.0
573 573 1.0
574 574 1.0
575 575 1.0
576 576 1.0
577 577 1.0
578 578 1.0
579 579 1.0
580 580 1.0
581 581 1.0
582 582 1.0
583 583 1.0
584 584 1.0
585 585 1.0
586 586 1.0
587 587 1.0
588 588 1.0
589 589 1.0
590 590 1.0
591 591 1.0
592 592 1.0
593 593 1.0
594 594 1.0
595 595 1.0
596 596 1.0
597 597 1.0
598 598 1.0
599 599 1.0
600 600 1.0
601 601 1.0
602 602 1.0
603 603 1.0
604 604 1.0
605 605 1.0
606 606 1.0
607 607 1.0
608 608 1.0
609 609 1.0
610 610 1.0
611 611 1.0
612 612 1.0
613 613 1.0
614 614 1.0
615 615 1.0
616 616 1.0
617 617 1.0
618 618 1.0
619 619 1.0
620 620 1.0
621 621 1.0
622 622 1.0
623 623 1.0
624 624 1.0
625 625 1.0
626 626 1.0
627 627 1.0
628 628 1.0
629 629 1.0
630 630 1.0
631 631 1.0
632 632 1.0
633 633 1.0
634 634 1.0
635 635 1.0
636 636 1.0
637 637 1.0
638 638 1.0
639 639 1.0
640 640 1.0
641 641 1.0
642 642 1.0
643 643 1.0
644 644 1.0
645 645 1.0
646 646 1.0
647 647 1.0
648 648 1.0
649 649 1.0
650 650 1.0
651 651 1.0
652 652 1.0
653 653 1.0
654 654 1.0
655 655 1.0
656 656 1.0
657 657 1.0
658 658 1.0
659 659 1.0
660 660 1.0
661 661 1.0
662 662 1.0
663 663 1.0
664 664 1.0
665 665 1.0
666 666 1.0
667 1 1.0
668 2 1.0
669 3 1.0
670 4 1.0
671 5 1.0
672 6 1.0
673 7 1.0
674 8 1.0
675 9 1.0
676 10 1.0
677 11 1.0
678 12 1.0
679 13 1.0
680 14 1.0
681 15 1.0
682 16 1.0
683 17 1.0
684 18 1.0
685 19 1.0
686 20 1.0
687 21 1.0
694 28 1.0
701 35 1.0
702 36 1.0
709 43 1.0
710 44 1.0
711 45 1.0
718 52 1.0
719 53 1.0
720 54 1.0
721 55 1.0
728 62 1.0
729 63 1.0
730 64 1.0
731 65 1.0
732 66 1.0
739 73 1.0
740 74 1.0
741 75 1.0
742 76 1.0
743 77 1.0
744 78 1.0
757 91 1.0
770 104 1.0
771 105 1.0
784 118 1.0
785 119 1.0
786 120 1.0
799 133 1.0
800 134 1.0
801 135 1.0
802 136 1.0
815 149 1.0
816 150 1.0
817 151 1.0
818 152 1.0
819 153 1.0
832 166 1.0
833 167 1.0
834 168 1.0
835 169 1.0
836 170 1.0
837 171 1.0
856 190 1.0
875 209 1.0
876 210 1.0
895 229 1.0
896 230 1.0
897 231 1.0
916 250 1.0
917 251 1.0
918 252 1.0
919 253 1.0
938 272 1.0
939 273 1.0
940 274 1.0
941 275 1.0
942 276 1.0
961 295 1.0
962 296 1.0
963 297 1.0
964 298 1.0
965 299 1.0
966 300 1.0
991 325 1.0
1016 350 1.0
1017 351 1.0
1042 376 1.0
1043 377 1.0
1044 378 1.0
1069 403 1.0
1070 404 1.0
1071 405 1.0
1072 406 1.0
1097 431 1.0
1098 432 1.0
1099 433 1.0
1100 434 1.0
1101 435 1.0
1126 460 1.0
1127 461 1.0
1128 462 1.0
1129 463 1.0
1130 464 1.0
1131 465 1.0
1162 496 1.0
1193 527 1.0
1194 528 1.0
1225 559 1.0
1226 560 1.0
1227 561 1.0
1258 592 1.0
1259 593 1.0
1260 594 1.0
1261 595 1.0
1292 626 1.0
1293 627 1.0
1294 628 1.0
1295 629 1.0
1296 630 1.0
1327 661 1.0
1328 662 1.0
1329 663 1.0
1330 664 1.0
1331 665 1.0
1332 666 1.0
1333 1 1.0
1334 2 1.0
1335 3 1.0
1336 4 1.0
1337 5 1.0
1338 6 1.0
1339 7 1.0
1340 8 1.0
1341 9 1.0
1342 10 1.0
1343 11 1.0
1344 12 1.0
1345 13 1.0
1346 14 1.0
1347 15 1.0
1348 16 1.0
1349 17 1.0
1350 18 1.0
1351 19 1.0
1352 20 1.0
1353 21 1.0
1354 22 1.0
1355 23 1.0
1356 24 1.0
1357 25 1.0
1358 26 1.0
1359 27 1.0
1360 28 1.0
1361 29 1.0
1362 30 1.0
1363 31 1.0
1364 32 1.0
1365 33 1.0
1366 34 1.0
1367 35 1.0
1368 36 1.0
1369 37 1.0
1370 38 1.0
1371 39 1.0
1372 40 1.0
1373 41 1.0
1374 42 1.0
1375 43 1.0
1376 44 1.0
1377 45 1.0
1378 46 1.0
1379 47 1.0
1380 48 1.0
1381 49 1.0
1382 50 1.0
1383 51 1.0
1384 52 1.0
1385 53 1.0
1386 54 1.0
1387 55 1.0
1388 56 1.0
1389 57 1.0
1390 58 1.0
1391 59 1.0
1392 60 1.0
1393 61 1.0
1394 62 1.0
1395 63 1.0
1396 64 1.0
1397 65 1.0
1398 66 1.0
1399 67 1.0
1400 68 1.0
1401 69 1.0
1402 70 1.0
1403 71 1.0
1404 72 1.0
1405 73 1.0
1406 74 1.0
1407 75 1.0
1408 76 1.0
1409 77 1.0
1410 78 1.0
1411 79 1.0
1412 80 1.0
1413 81 1.0
1414 82 1.0
1415 83 1.0
1416 84 1.0
1417 85 1.0
1418 86 1.0
1419 87 1.0
1420 88 1.0
1421 89 1.0
1422 90 1.0
1423 91 1.0
1424 92 1.0
1425 93 1.0
1426 94 1.0
1427 95 1.0
1428 96 1.0
1429 97 1.0
1430 98 1.0
1431 99 1.0
1432 100 1.0
1433 101 1.0
1434 102 1.0
1435 103 1.0
1436 104 1.0
1437 105 1.0
1438 106 1.0
1439 107 1.0
1440 108 1.0
1441 109 1.0
1442 110 1.0
1443 111 1.0
1444 112 1.0
1445 113 1.0
1446 114 1.0
1447 115 1.0
1448 116 1.0
1449 117 1.0
1450 118 1.0
1451 119 1.0
1452 120 1.0
1453 121 1.0
1454 122 1.0
1455 123 1.0
1456 124 1.0
1457 125 1.0
1458 126 1.0
1459 127 1.0
1460 128 1.0
1461 129 1.0
1462 130 1.0
1463 131 1.0
1464 132 1.0
1465 133 1.0
1466 134 1.0
1467 135 1.0
1468 136 1.0
1469 137 1.0
1470 138 1.0
1471 139 1.0
1472 140 1.0
1473 141 1.0
1474 142 1.0
1475 143 1.0
1476 144 1.0
1477 145 1.0
1478 146 1.0
1479 147 1.0
1480 148 1.0
1481 149 1.0
1482 150 1.0
1483 151 1.0
1484 152 1.0
1485 153 1.0
1486 154 1.0
1487 155 1.0
1488 156 1.0
1489 157 1.0
1490 158 1.0
1491 159 1.0
1492 160 1.0
1493 161 1.0
1494 162 1.0
1495 163 1.0
1496 164 1.0
1497 165 1.0
1498 166 1.0
1499 167 1.0
1500 168 1.0
1501 169 1.0
1502 170 1.0
1503 171 1.0
1504 172 1.0
1505 173 1.0
1506 174 1.0
1507 175 1.0
1508 176 1.0
1509 177 1.0
1510 178 1.0
1511 179 1.0
1512 180 1.0
1513 181 1.0
1514 182 1.0
1515 183 1.0
1516 184 1.0
1517 185 1.0
1518 186 1.0
1519 187 1.0
1520 188 1.0
1521 189 1.0
1522 190 1.0
1523 191 1.0
1524 192 1.0
1525 193 1.0
1526 194 1.0
1527 195 1.0
1528 196 1.0
1529 197 1.0
1530 198 1.0
1531 199 1.0
1532 200 1.0
1533 201 1.0
1534 202 1.0
1535 203 1.0
1536 204 1.0
1537 205 1.0
1538 206 1.0
1539 207 1.0
1540 208 1.0
1541 209 1.0
1542 210 1.0
1543 211 1.0
1544 212 1.0
1545 213 1.0
1546 214 1.0
1547 215 1.0
1548 216 1.0
1549 217 1.0
1550 218 1.0
1551 219 1.0
1552 220 1.0
1553 221 1.0
1554 222 1.0
1555 223 1.0
1556 224 1.0
1557 225 1.0
1558 226 1.0
1559 227 1.0
1560 228 1.0
1561 229 1.0
1562 230 1.0
1563 231 1.0
1564 232 1.0
1565 233 1.0
1566 234 1.0
1567 235 1.0
1568 236 1.0
1569 237 1.0
1570 238 1.0
1571 239 1.0
1572 240 1.0
1573 241 1.0
1574 242 1.0
1575 243 1.0
1576 244 1.0
1577 245 1.0
1578 246 1.0
1579 247 1.0
1580 248 1.0
1581 249 1.0
1582 250 1.0
1583 251 1.0
1584 252 1.0
1585 253 1.0
1586 254 1.0
1587 255 1.0
1588 256 1.0
1589 257 1.0
1590 258 1.0
1591 259 1.0
1592 260 1.0
1593 261 1.0
1594 262 1.0
1595 263 1.0
1596 264 1.0
1597 265 1.0
1598 266 1.0
1599 267 1.0
1600 268 1.0
1601 269 1.0
1602 270 1.0
1603 271 1.0
1604 272 1.0
1605 273 1.0
1606 274 1.0
1607 275 1.0
1608 276 1.0
1609 277 1.0
1610 278 1.0
1611 279 1.0
1612 280 1.0
1613 281 1.0
1614 282 1.0
1615 283 1.0
1616 284 1.0
1617 285 1.0
1618 286 1.0
1619 287 1.0
1620 288 1.0
1621 289 1.0
1622 290 1.0
1623 291 1.0
1624 292 1.0
1625 293 1.0
1626 294 1.0
1627 295 1.0
1628 296 1.0
1629 297 1.0
1630 298 1.0
1631 299 1.0
1632 300 1.0
1633 301 1.0
1634 302 1.0
1635 303 1.0
1636 304 1.0
1637 305 1.0
1638 306 1.0
1639 307 1.0
1640 308 1.0
1641 309 1.0
1642 310 1.0
1643 311 1.0
1644 312 1.0
1645 313 1.0
1646 314 1.0
1647 315 1.0
1648 316 1.0
1649 317 1.0
1650 318 1.0
1651 319 1.0
1652 320 1.0
1653 321 1.0
1654 322 1.0
1655 323 1.0
1656 324 1.0
1657 325 1.0
1658 326 1.0
1659 327 1.0
1660 328 1.0
1661 329 1.0
1662 330 1.0
1663 331 1.0
1664 332 1.0
1665 333 1.0
1666 334 1.0
1667 335 1.0
1668 336 1.0
1669 337 1.0
1670 338 1.0
1671 339 1.0
1672 340 1.0
1673 341 1.0
1674 342 1.0
1675 343 1.0
1676 344 1.0
1677 345 1.0
1678 346 1.0
1679 347 1.0
1680 348 1.0
1681 349 1.0
1682 350 1.0
1683 351 1.0
1684 352 1.0
1685 353 1.0
1686 354 1.0
1687 355 1.0
1688 356 1.0
1689 357 1.0
1690 358 1.0
1691 359 1.0
1692 360 1.0
1693 361 1.0
1694 362 1.0
1695 363 1.0
1696 364 1.0
1697 365 1.0
1698 366 1.0
1699 367 1.0
1700 368 1.0
1701 369 1.0
1702 370 1.0
1703 371 1.0
1704 372 1.0
1705 373 1.0
1706 374 1.0
1707 375 1.0
1708 376 1.0
1709 377 1.0
1710 378 1.0
1711 379 1.0
1712 380 1.0
1713 381 1.0
1714 382 1.0
1715 383 1.0
1716 384 1.0
1717 385 1.0
1718 386 1.0
1719 387 1.0
1720 388 1.0
1721 389 1.0
1722 390 1.0
1723 391 1.0
1724 392 1.0
1725 393 1.0
1726 394 1.0
1727 395 1.0
1728 396 1.0
1729 397 1.0
1730 398 1.0
1731 399 1.0
1732 400 1.0
1733 401 1.0
1734 402 1.0
1735 403 1.0
1736 404 1.0
1737 405 1.0
1738 406 1.0
1739 407 1.0
1740 408 1.0
1741 409 1.0
1742 410 1.0
1743 411 1.0
1744 412 1.0
1745 413 1.0
1746 414 1.0
1747 415 1.0
1748 416 1.0
1749 417 1.0
1750 418 1.0
1751 419 1.0
1752 420 1.0
1753 421 1.0
1754 422 1.0
1755 423 1.0
1756 424 1.0
1757 425 1.0
1758 426 1.0
1759 427 1.0
1760 428 1.0
1761 429 1.0
1762 430 1.0
1763 431 1.0
1764 432 1.0
1765 433 1.0
1766 434 1.0
1767 435 1.0
1768 436 1.0
1769 437 1.0
1770 438 1.0
1771 439 1.0
1772 440 1.0
1773 441 1.0
1774 442 1.0
1775 443 1.0
1776 444 1.0
1777 445 1.0
1778 446 1.0
1779 447 1.0
1780 448 1.0
1781 449 1.0
1782 450 1.0
1783 451 1.0
1784 452 1.0
1785 453 1.0
1786 454 1.0
1787 455 1.0
1788 456 1.0
1789 457 1.0
1790 458 1.0
1791 459 1.0
1792 460 1.0
1793 461 1.0
1794 462 1.0
1795 463 1.0
1796 464 1.0
1797 465 1.0
1798 466 1.0
1799 467 1.0
1800 468 1.0
1801 469 1.0
1802 470 1.0
1803 471 1.0
1804 472 1.0
1805 473 1.0
1806 474 1.0
1807 475 1.0
1808 476 1.0
1809 477 1.0
1810 478 1.0
1811 479 1.0
1812 480 1.0
1813 481 1.0
1814 482 1.0
1815 483 1.0
1816 484 1.0
1817 485 1.0
1818 486 1.0
1819 487 1.0
1820 488 1.0
1821 489 1.0
1822 490 1.0
1823 491 1.0
1824 492 1.0
1825 493 1.0
1826 494 1.0
1827 495 1.0
1828 496 1.0
1829 497 1.0
1830 498 1.0
1831 499 1.0
1832 500 1.0
1833 501 1.0
1834 502 1.0
1835 503 1.0
1836 504 1.0
1837 505 1.0
1838 506 1.0
1839 507 1.0
1840 508 1.0
1841 509 1.0
1842 510 1.0
1843 511 1.0
1844 512 1.0
1845 513 1.0
1846 514 1.0
1847 515 1.0
1848 516 1.0
1849 517 1.0
1850 518 1.0
1851 519 1.0
1852 520 1.0
1853 521 1.0
1854 522 1.0
1855 523 1.0
1856 524 1.0
1857 525 1.0
1858 526 1.0
1859 527 1.0
1860 528 1.0
1861 529 1.0
1862 530 1.0
1863 531 1.0
1864 532 1.0
1865 533 1.0
1866 534 1.0
1867 535 1.0
1868 536 1.0
1869 537 1.0
1870 538 1.0
1871 539 1.0
1872 540 1.0
1873 541 1.0
1874 542 1.0
1875 543 1.0
1876 544 1.0
1877 545 1.0
1878 546 1.0
1879 547 1.0
1880 548 1.0
1881 549 1.0
1882 550 1.0
1883 551 1.0
1884 552 1.0
1885 553 1.0
1886 554 1.0
1887 555 1.0
1888 556 1.0
1889 557 1.0
1890 558 1.0
1891 559 1.0
1892 560 1.0
1893 561 1.0
1894 562 1.0
1895 563 1.0
1896 564 1.0
1897 565 1.0
1898 566 1.0
1899 567 1.0
1900 568 1.0
1901 569 1.0
1902 570 1.0
1903 571 1.0
1904 572 1.0
1905 573 1.0
1906 574 1.0
1907 575 1.0
1908 576 1.0
1909 577 1.0
1910 578 1.0
1911 579 1.0
1912 580 1.0
1913 581 1.0
1914 582 1.0
1915 583 1.0
1916 584 1.0
1917 585 1.0
1918 586 1.0
1919 587 1.0
1920 588 1.0
1921 589 1.0
1922 590 1.0
1923 591 1.0
1924 592 1.0
1925 593 1.0
1926 594 1.0
1927 595 1.0
1928 596 1.0
1929 597 1.0
1930 598 1.0
1931 599 1.0
1932 600 1.0
1933 601 1.0
1934 602 1.0
1935 603 1.0
1936 604 1.0
1937 605 1.0
1938 606 1.0
1939 607 1.0
1940 608 1.0
1941 609 1.0
1942 610 1.0
1943 611 1.0
1944 612 1.0
1945 613 1.0
1946 614 1.0
1947 615 1.0
1948 616 1.0
1949 617 1.0
1950 618 1.0
1951 619 1.0
1952 620 1.0
1953 621 1.0
1954 622 1.0
1955 623 1.0
1956 624 1.0
1957 625 1.0
1958 626 1.0
1959 627 1.0
1960 628 1.0
1961 629 1.0
1962 630 1.0
1963 631 1.0
1964 632 1.0
1965 633 1.0
1966 634 1.0
1967 635 1.0
1968 636 1.0
1969 637 1.0
1970 638 1.0
1971 639 1.0
1972 640 1.0
1973 641 1.0
1974 642 1.0
1975 643 1.0
1976 644 1.0
1977 645 1.0
1978 646 1.0
1979 647 1.0
1980 648 1.0
1981 649 1.0
1982 650 1.0
1983 651 1.0
1984 652 1.0
1985 653 1.0
1986 654 1.0
1987 655 1.0
1988 656 1.0
1989 657 1.0
1990 658 1.0
1991 659 1.0
1992 660 1.0
1993 661 1.0
1994 662 1.0
1995 663 1.0
1996 664 1.0
1997 665 1.0
1998 666 1.0
1999 1 1.0
2000 3 1.0
2001 6 1.0
2002 10 1.0
2003 15 1.0
2004 21 1.0
2005 28 1.0
2006 36 1.0
2007 45 1.0
2008 55 1.0
2009 66 1.0
2010 78 1.0
2011 91 1.0
2012 105 1.0
2013 120 1.0
2014 136 1.0
2015 153 1.0
2016 171 1.0
2017 190 1.0
2018 210 1.0
2019 231 1.0
2020 253 1.0
2021 276 1.0
2022 300 1.0
2023 325 1.0
2024 351 1.0
2025 378 1.0
2026 406 1.0
2027 435 1.0
2028 465 1.0
2029 496 1.0
2030 528 1.0
2031 561 1.0
2032 595 1.0
2033 630 1.0
2034 1 0.25
2034 2 0.3535533905932738
2034 3 0.25
2034 22 0.3535533905932738
2034 23 0.3535533905932738
2034 28 0.25
2034 29 0.3535533905932738
2034 30 0.3535533905932738
2034 35 0.3535533905932738
2034 36 0.25
2035 1 0.25
2035 2 -0.3535533905932738
2035 3 0.25
2035 22 0.3535533905932738
2035 23 -0.3535533905932738
2035 28 0.25
2035 29 -0.3535533905932738
2035 30 0.3535533905932738
2035 35 -0.3535533905932738
2035 36 0.25
2036 6 0.25
2036 9 0.3535533905932738
2036 10 0.25
2036 39 0.3535533905932738
2036 40 0.3535533905932738
2036 45 0.25
2036 48 0.3535533905932738
2036 49 0.3535533905932738
2036 54 0.3535533905932738
2036 55 0.25
2037 6 0.25
2037 9 -0.3535533905932738
2037 10 0.25
2037 39 0.3535533905932738
2037 40 -0.3535533905932738
2037 45 0.25
2037 48 -0.3535533905932738
2037 49 0.3535533905932738
2037 54 -0.3535533905932738
2037 55 0.25
2038 15 0.25
2038 20 0.3535533905932738
2038 21 0.25
2038 60 0.3535533905932738
2038 61 0.3535533905932738
2038 66 0.25
2038 71 0.3535533905932738
2038 72 0.3535533905932738
2038 77 0.3535533905932738
2038 78 0.25
2039 15 0.25
2039 20 -0.3535533905932738
2039 21 0.25
2039 60 0.3535533905932738
2039 61 -0.3535533905932738
2039 66 0.25
2039 71 -0.3535533905932738
2039 72 0.3535533905932738
2039 77 -0.3535533905932738
2039 78 0.25
2040 1 0.25
2040 2 0.3535533905932738
2040 3 0.25
2040 22 -0.3535533905932738
2040 23 -0.3535533905932738
2040 28 0.25
2040 29 -0.3535533905932738
2040 30 -0.3535533905932738
2040 35 0.3535533905932738
2040 36 0.25
2041 6 0.25
2041 9 0.3535533905932738
2041 10 0.25
2041 39 -0.3535533905932738
2041 40 -0.3535533905932738
2041 45 0.25
2041 48 -0.3535533905932738
2041 49 -0.3535533905932738
2041 54 0.3535533905932738
2041 55 0.25
2042 15 0.25
2042 20 0.3535533905932738
2042 21 0.25
2042 60 -0.3535533905932738
2042 61 -0.3535533905932738
2042 66 0.25
2042 71 -0.3535533905932738
2042 72 -0.3535533905932738
2042 77 0.3535533905932738
2042 78 0.25
2043 91 0.25
2043 104 0.3535533905932738
2043 105 0.25
2043 184 0.3535533905932738
2043 185 0.3535533905932738
2043 190 0.25
2043 203 0.3535533905932738
2043 204 0.3535533905932738
2043 209 0.3535533905932738
2043 210 0.25
2044 91 0.25
2044 104 -0.3535533905932738
2044 105 0.25
2044 184 0.3535533905932738
2044 185 -0.3535533905932738
2044 190 0.25
2044 203 -0.3535533905932738
2044 204 0.3535533905932738
2044 209 -0.3535533905932738
2044 210 0.25
2045 120 0.25
2045 135 0.3535533905932738
2045 136 0.25
2045 225 0.3535533905932738
2045 226 0.3535533905932738
2045 231 0.25
2045 246 0.3535533905932738
2045 247 0.3535533905932738
2045 252 0.3535533905932738
2045 253 0.25
2046 120 0.25
2046 135 -0.3535533905932738
2046 136 0.25
2046 225 0.3535533905932738
2046 226 -0.3535533905932738
2046 231 0.25
2046 246 -0.3535533905932738
2046 247 0.3535533905932738
2046 252 -0.3535533905932738
2046 253 0.25
2047 153 0.25
2047 170 0.3535533905932738
2047 171 0.25
2047 270 0.3535533905932738
2047 271 0.3535533905932738
2047 276 0.25
2047 293 0.3535533905932738
2047 294 0.3535533905932738
2047 299 0.3535533905932738
2047 300 0.25
2048 153 0.25
2048 170 -0.3535533905932738
2048 171 0.25
2048 270 0.3535533905932738
2048 271 -0.3535533905932738
2048 276 0.25
2048 293 -0.3535533905932738
2048 294 0.3535533905932738
2048 299 -0.3535533905932738
2048 300 0.25
2049 91 0.25
2049 104 0.3535533905932738
2049 105 0.25
2049 184 -0.3535533905932738
2049 185 -0.3535533905932738
2049 190 0.25
2049 203 -0.3535533905932738
2049 204 -0.3535533905932738
2049 209 0.3535533905932738
2049 210 0.25
2050 120 0.25
2050 135 0.3535533905932738
2050 136 0.25
2050 225 -0.3535533905932738
2050 226 -0.3535533905932738
2050 231 0.25
2050 246 -0.3535533905932738
2050 247 -0.3535533905932738
2050 252 0.3535533905932738
2050 253 0.25
2051 153 0.25
2051 170 0.3535533905932738
2051 171 0.25
2051 270 -0.3535533905932738
2051 271 -0.3535533905932738
2051 276 0.25
2051 293 -0.3535533905932738
2051 294 -0.3535533905932738
2051 299 0.3535533905932738
2051 300 0.25
2052 325 0.25
2052 350 0.3535533905932738
2052 351 0.25
2052 490 0.3535533905932738
2052 491 0.3535533905932738
2052 496 0.25
2052 521 0.3535533905932738
2052 522 0.3535533905932738
2052 527 0.3535533905932738
2052 528 0.25
2053 325 0.25
2053 350 -0.3535533905932738
2053 351 0.25
2053 490 0.3535533905932738
2053 491 -0.3535533905932738
2053 496 0.25
2053 521 -0.3535533905932738
2053 522 0.3535533905932738
2053 527 -0.3535533905932738
2053 528 0.25
2054 378 0.25
2054 405 0.3535533905932738
2054 406 0.25
2054 555 0.3535533905932738
2054 556 0.3535533905932738
2054 561 0.25
2054 588 0.3535533905932738
2054 589 0.3535533905932738
2054 594 0.3535533905932738
2054 595 0.25
2055 378 0.25
2055 405 -0.3535533905932738
2055 406 0.25
2055 555 0.3535533905932738
2055 556 -0.3535533905932738
2055 561 0.25
2055 588 -0.3535533905932738
2055 589 0.3535533905932738
2055 594 -0.3535533905932738
2055 595 0.25
2056 435 0.25
2056 464 0.3535533905932738
2056 465 0.25
2056 624 0.3535533905932738
2056 625 0.3535533905932738
2056 630 0.25
2056 659 0.3535533905932738
2056 660 0.3535533905932738
2056 665 0.3535533905932738
2056 666 0.25
2057 435 0.25
2057 464 -0.3535533905932738
2057 465 0.25
2057 624 0.3535533905932738
2057 625 -0.3535533905932738
2057 630 0.25
2057 659 -0.3535533905932738
2057 660 0.3535533905932738
2057 665 -0.3535533905932738
2057 666 0.25
2058 325 0.25
2058 350 0.3535533905932738
2058 351 0.25
2058 490 -0.3535533905932738
2058 491 -0.3535533905932738
2058 496 0.25
2058 521 -0.3535533905932738
2058 522 -0.3535533905932738
2058 527 0.3535533905932738
2058 528 0.25
2059 378 0.25
2059 405 0.3535533905932738
2059 406 0.25
2059 555 -0.3535533905932738
2059 556 -0.3535533905932738
2059 561 0.25
2059 588 -0.3535533905932738
2059 589 -0.3535533905932738
2059 594 0.3535533905932738
2059 595 0.25
2060 435 0.25
2060 464 0.3535533905932738
2060 465 0.25
2060 624 -0.3535533905932738
2060 625 -0.3535533905932738
2060 630 0.25
2060 659 -0.3535533905932738
2060 660 -0.3535533905932738
2060 665 0.3535533905932738
2060 666 0.25
2061 3 0.5
2061 5 0.7071067811865476
2061 6 0.5
2062 10 0.5
2062 14 0.7071067811865476
2062 15 0.5
2063 28 0.5
2063 85 0.7071067811865476
2063 91 0.5
2064 36 0.25
2064 44 0.3535533905932738
2064 45 0.25
2064 99 0.3535533905932738
2064 100 0.3535533905932738
2064 105 0.25
2064 113 0.3535533905932738
2064 114 0.3535533905932738
2064 119 0.3535533905932738
2064 120 0.25
2065 36 0.25
2065 44 -0.3535533905932738
2065 45 0.25
2065 99 0.3535533905932738
2065 100 -0.3535533905932738
2065 105 0.25
2065 113 -0.3535533905932738
2065 114 0.3535533905932738
2065 119 -0.3535533905932738
2065 120 0.25
2066 55 0.25
2066 65 0.3535533905932738
2066 66 0.25
2066 130 0.3535533905932738
2066 131 0.3535533905932738
2066 136 0.25
2066 146 0.3535533905932738
2066 147 0.3535533905932738
2066 152 0.3535533905932738
2066 153 0.25
2067 55 0.25
2067 65 -0.3535533905932738
2067 66 0.25
2067 130 0.3535533905932738
2067 131 -0.3535533905932738
2067 136 0.25
2067 146 -0.3535533905932738
2067 147 0.3535533905932738
2067 152 -0.3535533905932738
2067 153 0.25
2068 78 0.5
2068 165 0.7071067811865476
2068 171 0.5
2069 36 0.25
2069 44 0.3535533905932738
2069 45 0.25
2069 99 -0.3535533905932738
2069 100 -0.3535533905932738
2069 105 0.25
2069 113 -0.3535533905932738
2069 114 -0.3535533905932738
2069 119 0.3535533905932738
2069 120 0.25
2070 55 0.25
2070 65 0.3535533905932738
2070 66 0.25
2070 130 -0.3535533905932738
2070 131 -0.3535533905932738
2070 136 0.25
2070 146 -0.3535533905932738
2070 147 -0.3535533905932738
2070 152 0.3535533905932738
2070 153 0.25
2071 190 0.5
2071 319 0.7071067811865476
2071 325 0.5
2072 210 0.25
2072 230 0.3535533905932738
2072 231 0.25
2072 345 0.3535533905932738
2072 346 0.3535533905932738
2072 351 0.25
2072 371 0.3535533905932738
2072 372 0.3535533905932738
2072 377 0.3535533905932738
2072 378 0.25
2073 210 0.25
2073 230 -0.3535533905932738
2073 231 0.25
2073 345 0.3535533905932738
2073 346 -0.3535533905932738
2073 351 0.25
2073 371 -0.3535533905932738
2073 372 0.3535533905932738
2073 377 -0.3535533905932738
2073 378 0.25
2074 253 0.25
2074 275 0.3535533905932738
2074 276 0.25
2074 400 0.3535533905932738
2074 401 0.3535533905932738
2074 406 0.25
2074 428 0.3535533905932738
2074 429 0.3535533905932738
2074 434 0.3535533905932738
2074 435 0.25
2075 253 0.25
2075 275 -0.3535533905932738
2075 276 0.25
2075 400 0.3535533905932738
2075 401 -0.3535533905932738
2075 406 0.25
2075 428 -0.3535533905932738
2075 429 0.3535533905932738
2075 434 -0.3535533905932738
2075 435 0.25
2076 300 0.5
2076 459 0.7071067811865476
2076 465 0.5
2077 210 0.25
2077 230 0.3535533905932738
2077 231 0.25
2077 345 -0.3535533905932738
2077 346 -0.3535533905932738
2077 351 0.25
2077 371 -0.3535533905932738
2077 372 -0.3535533905932738
2077 377 0.3535533905932738
2077 378 0.25
2078 253 0.25
2078 275 0.3535533905932738
2078 276 0.25
2078 400 -0.3535533905932738
2078 401 -0.3535533905932738
2078 406 0.25
2078 428 -0.3535533905932738
2078 429 -0.3535533905932738
2078 434 0.3535533905932738
2078 435 0.25
2079 528 0.5
2079 560 0.7071067811865476
2079 561 0.5
2080 595 0.5
2080 629 0.7071067811865476
2080 630 0.5
2081 1 1.0
2081 3 1.0
2081 6 1.0
2081 10 1.0
2081 15 1.0
2081 21 1.0
2081 28 1.0
2081 36 1.0
2081 45 1.0
2081 55 1.0
2081 66 1.0
2081 78 1.0
2081 91 1.0
2081 105 1.0
2081 120 1.0
2081 136 1.0
2081 153 1.0
2081 171 1.0
2081 190 1.0
2081 210 1.0
2081 231 1.0
2081 253 1.0
2081 276 1.0
2081 300 1.0
2081 325 1.0
2081 351 1.0
2081 378 1.0
2081 406 1.0
2081 435 1.0
2081 465 1.0
2081 496 1.0
2081 528 1.0
2081 561 1.0
2081 595 1.0
2081 630 1.0
2081 666 1.0

BCOORD
83
1999 0.1597222222222222
2000 0.00138888888888889
2001 0.00138888888888889
2002 0.00138888888888889
2003 0.00138888888888889
2004 0.00138888888888889
2005 0.00138888888888889
2006 0.1597222222222222
2007 0.00138888888888889
2008 0.00138888888888889
2009 0.00138888888888889
2010 0.00138888888888889
2011 0.00138888888888889
2012 0.00138888888888889
2013 0.1597222222222222
2014 0.00138888888888889
2015 0.00138888888888889
2016 0.00138888888888889
2017 0.00138888888888889
2018 0.00138888888888889
2019 0.00138888888888889
2020 0.1597222222222222
2021 0.00138888888888889
2022 0.00138888888888889
2023 0.00138888888888889
2024 0.00138888888888889
2025 0.00138888888888889
2026 0.00138888888888889
2027 0.1597222222222222
2028 0.00138888888888889
2029 0.00138888888888889
2030 0.00138888888888889
2031 0.00138888888888889
2032 0.00138888888888889
2033 0.00138888888888889
2034 0.1597222222222222
2035 0.001388888888888884
2036 0.00138888888888889
2037 0.00138888888888889
2038 0.00138888888888889
2039 0.00138888888888889
2040 0.001388888888888884
2041 0.00138888888888889
2042 0.00138888888888889
2043 0.00138888888888889
2044 0.00138888888888889
2045 0.1597222222222222
2046 0.001388888888888884
2047 0.00138888888888889
2048 0.00138888888888889
2049 0.00138888888888889
2050 0.001388888888888884
2051 0.00138888888888889
2052 0.00138888888888889
2053 0.00138888888888889
2054 0.00138888888888889
2055 0.00138888888888889
2056 0.1597222222222222
2057 0.001388888888888884
2058 0.00138888888888889
2059 0.00138888888888889
2060 0.001388888888888884
2061 0.00138888888888889
2062 0.00138888888888889
2063 0.00138888888888889
2064 0.1597222222222222
2065 0.001388888888888884
2066 0.00138888888888889
2067 0.00138888888888889
2068 0.00138888888888889
2069 0.001388888888888884
2070 0.00138888888888889
2071 0.00138888888888889
2072 0.00138888888888889
2073 0.00138888888888889
2074 0.1597222222222222
2075 0.001388888888888884
2076 0.00138888888888889
2077 0.00138888888888889
2078 0.001388888888888884
2079 0.00138888888888889
2080 0.00138888888888889
2081 1.0
